n_skills = 5;
n_workers = 9;
has_skills = [{1, 4}, {5}, {3}, {2, 4, 5}, {4}, {2, 3, 5}, {2, 3, 5}, {5}, {2, 3}];
n_tasks = 20;
d = [4, 4, 3, 2, 3, 2, 3, 2, 2, 5, 3, 4, 3, 2, 1, 3, 4, 1, 4, 2];
rr = [| 1, 1, 0, 0, 0, 0, 0, 0, 1, 0, 0, 0, 0, 0, 0, 0, 0, 0, 0, 0
      | 0, 0, 0, 1, 0, 0, 0, 0, 2, 0, 1, 0, 0, 2, 0, 0, 1, 0, 0, 0
      | 0, 1, 2, 0, 1, 0, 0, 1, 0, 0, 0, 0, 0, 0, 0, 0, 0, 0, 0, 1
      | 1, 0, 0, 1, 2, 0, 1, 1, 0, 1, 1, 0, 1, 0, 1, 1, 0, 0, 0, 0
      | 1, 1, 0, 1, 0, 1, 0, 1, 0, 0, 0, 1, 1, 1, 0, 2, 0, 1, 1, 1 |];

suc = [{6, 8, 9}, {5, 7, 14}, {4, 14}, {5, 7, 16}, {12, 13}, {18, 20}, {8, 17, 20}, {13, 19}, {10, 13}, {11}, {12, 14}, {17}, {18}, {15, 18}, {16, 17, 20}, {19}, {19}, {}, {}, {}];
maxMakeSpan = 29;

% 1.) Work with some other agent
workTogether =   [{1,2}, {3,4}, {1,3}, {2,4,6}, {7,8},{7,9}];
scWorkTogether = [    1,     2,     3,       4,     5,    6];

% 2.) Do not work with other agent
workNotTogether =   [{1,4}, {2,3}, {1,9}, {2,4,8}];
scWorkNotTogether = [    7,     8,     9,      10];

% 3.) Work on certain task preferably
desiredTaskWorkers = [5,   6,  7,  8];
desiredTasks =       [17,  3,  4,  2];
scDesireds =         [11, 12, 13, 14];

% 4.) Do not work on a certain task preferably  
avoidedTaskWorkers = [1,   1,  6];
avoidedTasks =       [2,   3, 19];
scAvoideds =         [15, 16, 17];

crTempEdges = [| 3, 1 |
                 2, 3 |
                 2, 4 |
                 4, 1 |
                 1, 6 |
                 1, 7 |
                 8, 3 |
                10, 4 |
                12, 4 |
                15, 1 |
                16, 15 |
                12, 17 |];
